<instance format="XCSP3" type="CSP">
  <variables>
    <array id="x" note="x[i][j] is the index of the piece at row i and column j" size="[10][8]"> 0..79 </array>
    <array id="t" note="t[i][j] is the value at the top of the piece at row i and column j" size="[11][8]"> 0..13 </array>
    <array id="l" note="l[i][j] is the value at the left of the piece at row i and column j" size="[10][9]"> 0..13 </array>
  </variables>
  <constraints>
    <allDifferent note="all pieces must be placed (only once)"> x[][] </allDifferent>
    <group note="all pieces must be valid (i.e., must correspond to those given initially, possibly after applying some rotation)">
      <extension>
        <list> %... </list>
        <supports> (0,0,0,1,1)(0,0,1,1,0)(0,1,0,0,1)(0,1,1,0,0)(1,0,0,2,1)(1,0,2,1,0)(1,1,0,0,2)(1,2,1,0,0)(2,0,0,2,4)(2,0,2,4,0)(2,2,4,0,0)(2,4,0,0,2)(3,0,0,3,1)(3,0,3,1,0)(3,1,0,0,3)(3,3,1,0,0)(4,0,1,5,4)(4,1,5,4,0)(4,4,0,1,5)(4,5,4,0,1)(5,0,1,6,4)(5,1,6,4,0)(5,4,0,1,6)(5,6,4,0,1)(6,0,1,8,1)(6,1,0,1,8)(6,1,8,1,0)(6,8,1,0,1)(7,0,1,10,2)(7,1,10,2,0)(7,2,0,1,10)(7,10,2,0,1)(8,0,1,13,1)(8,1,0,1,13)(8,1,13,1,0)(8,13,1,0,1)(9,0,1,13,2)(9,1,13,2,0)(9,2,0,1,13)(9,13,2,0,1)(10,0,1,13,3)(10,1,13,3,0)(10,3,0,1,13)(10,13,3,0,1)(11,0,2,6,2)(11,2,0,2,6)(11,2,6,2,0)(11,6,2,0,2)(12,0,2,6,4)(12,2,6,4,0)(12,4,0,2,6)(12,6,4,0,2)(13,0,2,8,2)(13,2,0,2,8)(13,2,8,2,0)(13,8,2,0,2)(14,0,2,8,4)(14,2,8,4,0)(14,4,0,2,8)(14,8,4,0,2)(15,0,2,9,1)(15,1,0,2,9)(15,2,9,1,0)(15,9,1,0,2)(16,0,2,13,1)(16,1,0,2,13)(16,2,13,1,0)(16,13,1,0,2)(17,0,3,5,3)(17,3,0,3,5)(17,3,5,3,0)(17,5,3,0,3)(18,0,3,5,4)(18,3,5,4,0)(18,4,0,3,5)(18,5,4,0,3)(19,0,3,6,1)(19,1,0,3,6)(19,3,6,1,0)(19,6,1,0,3)(20,0,3,7,3)(20,3,0,3,7)(20,3,7,3,0)(20,7,3,0,3)(21,0,3,9,3)(21,3,0,3,9)(21,3,9,3,0)(21,9,3,0,3)(22,0,3,11,2)(22,2,0,3,11)(22,3,11,2,0)(22,11,2,0,3)(23,0,3,12,2)(23,2,0,3,12)(23,3,12,2,0)(23,12,2,0,3)(24,0,4,6,3)(24,3,0,4,6)(24,4,6,3,0)(24,6,3,0,4)(25,0,4,7,4)(25,4,0,4,7)(25,4,7,4,0)(25,7,4,0,4)(26,0,4,8,3)(26,3,0,4,8)(26,4,8,3,0)(26,8,3,0,4)(27,0,4,9,2)(27,2,0,4,9)(27,4,9,2,0)(27,9,2,0,4)(28,0,4,9,4)(28,4,0,4,9)(28,4,9,4,0)(28,9,4,0,4)(29,0,4,10,3)(29,3,0,4,10)(29,4,10,3,0)(29,10,3,0,4)(30,0,4,12,3)(30,3,0,4,12)(30,4,12,3,0)(30,12,3,0,4)(31,0,4,13,2)(31,2,0,4,13)(31,4,13,2,0)(31,13,2,0,4)(32,5,5,7,7)(32,5,7,7,5)(32,7,5,5,7)(32,7,7,5,5)(33,5,5,13,13)(33,5,13,13,5)(33,13,5,5,13)(33,13,13,5,5)(34,5,6,5,11)(34,5,11,5,6)(34,6,5,11,5)(34,11,5,6,5)(35,5,7,8,6)(35,6,5,7,8)(35,7,8,6,5)(35,8,6,5,7)(36,5,7,9,9)(36,7,9,9,5)(36,9,5,7,9)(36,9,9,5,7)(37,5,8,11,10)(37,8,11,10,5)(37,10,5,8,11)(37,11,10,5,8)(38,5,8,13,7)(38,7,5,8,13)(38,8,13,7,5)(38,13,7,5,8)(39,5,9,7,6)(39,6,5,9,7)(39,7,6,5,9)(39,9,7,6,5)(40,5,9,8,7)(40,7,5,9,8)(40,8,7,5,9)(40,9,8,7,5)(41,5,9,10,8)(41,8,5,9,10)(41,9,10,8,5)(41,10,8,5,9)(42,5,9,12,12)(42,9,12,12,5)(42,12,5,9,12)(42,12,12,5,9)(43,5,10,7,10)(43,7,10,5,10)(43,10,5,10,7)(43,10,7,10,5)(44,5,10,11,12)(44,10,11,12,5)(44,11,12,5,10)(44,12,5,10,11)(45,5,11,7,10)(45,7,10,5,11)(45,10,5,11,7)(45,11,7,10,5)(46,5,11,13,10)(46,10,5,11,13)(46,11,13,10,5)(46,13,10,5,11)(47,5,12,6,6)(47,6,5,12,6)(47,6,6,5,12)(47,12,6,6,5)(48,5,12,8,8)(48,8,5,12,8)(48,8,8,5,12)(48,12,8,8,5)(49,5,13,7,11)(49,7,11,5,13)(49,11,5,13,7)(49,13,7,11,5)(50,5,13,8,7)(50,7,5,13,8)(50,8,7,5,13)(50,13,8,7,5)(51,5,13,13,9)(51,9,5,13,13)(51,13,9,5,13)(51,13,13,9,5)(52,6,6,8,10)(52,6,8,10,6)(52,8,10,6,6)(52,10,6,6,8)(53,6,6,12,9)(53,6,12,9,6)(53,9,6,6,12)(53,12,9,6,6)(54,6,6,13,12)(54,6,13,12,6)(54,12,6,6,13)(54,13,12,6,6)(55,6,7,12,8)(55,7,12,8,6)(55,8,6,7,12)(55,12,8,6,7)(56,6,8,10,7)(56,7,6,8,10)(56,8,10,7,6)(56,10,7,6,8)(57,6,10,7,11)(57,7,11,6,10)(57,10,7,11,6)(57,11,6,10,7)(58,6,10,8,7)(58,7,6,10,8)(58,8,7,6,10)(58,10,8,7,6)(59,6,11,8,11)(59,8,11,6,11)(59,11,6,11,8)(59,11,8,11,6)(60,6,11,10,13)(60,10,13,6,11)(60,11,10,13,6)(60,13,6,11,10)(61,6,11,11,12)(61,11,11,12,6)(61,11,12,6,11)(61,12,6,11,11)(62,6,11,13,9)(62,9,6,11,13)(62,11,13,9,6)(62,13,9,6,11)(63,6,12,7,10)(63,7,10,6,12)(63,10,6,12,7)(63,12,7,10,6)(64,6,12,9,11)(64,9,11,6,12)(64,11,6,12,9)(64,12,9,11,6)(65,7,8,8,9)(65,8,8,9,7)(65,8,9,7,8)(65,9,7,8,8)(66,7,9,9,10)(66,9,9,10,7)(66,9,10,7,9)(66,10,7,9,9)(67,7,11,7,12)(67,7,12,7,11)(67,11,7,12,7)(67,12,7,11,7)(68,7,12,9,11)(68,9,11,7,12)(68,11,7,12,9)(68,12,9,11,7)(69,7,13,11,8)(69,8,7,13,11)(69,11,8,7,13)(69,13,11,8,7)(70,8,10,8,13)(70,8,13,8,10)(70,10,8,13,8)(70,13,8,10,8)(71,8,10,11,10)(71,10,8,10,11)(71,10,11,10,8)(71,11,10,8,10)(72,8,13,13,12)(72,12,8,13,13)(72,13,12,8,13)(72,13,13,12,8)(73,9,9,9,11)(73,9,9,11,9)(73,9,11,9,9)(73,11,9,9,9)(74,9,10,12,13)(74,10,12,13,9)(74,12,13,9,10)(74,13,9,10,12)(75,9,10,13,11)(75,10,13,11,9)(75,11,9,10,13)(75,13,11,9,10)(76,9,12,10,11)(76,10,11,9,12)(76,11,9,12,10)(76,12,10,11,9)(77,10,12,12,13)(77,12,12,13,10)(77,12,13,10,12)(77,13,10,12,12)(78,10,13,11,12)(78,11,12,10,13)(78,12,10,13,11)(78,13,11,12,10)(79,11,12,12,12)(79,12,11,12,12)(79,12,12,11,12)(79,12,12,12,11) </supports>
      </extension>
      <args> x[0][0] t[0][0] l[0][1] t[1][0] l[0][0] </args>
      <args> x[0][1] t[0][1] l[0][2] t[1][1] l[0][1] </args>
      <args> x[0][2] t[0][2] l[0][3] t[1][2] l[0][2] </args>
      <args> x[0][3] t[0][3] l[0][4] t[1][3] l[0][3] </args>
      <args> x[0][4] t[0][4] l[0][5] t[1][4] l[0][4] </args>
      <args> x[0][5] t[0][5] l[0][6] t[1][5] l[0][5] </args>
      <args> x[0][6] t[0][6] l[0][7] t[1][6] l[0][6] </args>
      <args> x[0][7] t[0][7] l[0][8] t[1][7] l[0][7] </args>
      <args> x[1][0] t[1][0] l[1][1] t[2][0] l[1][0] </args>
      <args> x[1][1] t[1][1] l[1][2] t[2][1] l[1][1] </args>
      <args> x[1][2] t[1][2] l[1][3] t[2][2] l[1][2] </args>
      <args> x[1][3] t[1][3] l[1][4] t[2][3] l[1][3] </args>
      <args> x[1][4] t[1][4] l[1][5] t[2][4] l[1][4] </args>
      <args> x[1][5] t[1][5] l[1][6] t[2][5] l[1][5] </args>
      <args> x[1][6] t[1][6] l[1][7] t[2][6] l[1][6] </args>
      <args> x[1][7] t[1][7] l[1][8] t[2][7] l[1][7] </args>
      <args> x[2][0] t[2][0] l[2][1] t[3][0] l[2][0] </args>
      <args> x[2][1] t[2][1] l[2][2] t[3][1] l[2][1] </args>
      <args> x[2][2] t[2][2] l[2][3] t[3][2] l[2][2] </args>
      <args> x[2][3] t[2][3] l[2][4] t[3][3] l[2][3] </args>
      <args> x[2][4] t[2][4] l[2][5] t[3][4] l[2][4] </args>
      <args> x[2][5] t[2][5] l[2][6] t[3][5] l[2][5] </args>
      <args> x[2][6] t[2][6] l[2][7] t[3][6] l[2][6] </args>
      <args> x[2][7] t[2][7] l[2][8] t[3][7] l[2][7] </args>
      <args> x[3][0] t[3][0] l[3][1] t[4][0] l[3][0] </args>
      <args> x[3][1] t[3][1] l[3][2] t[4][1] l[3][1] </args>
      <args> x[3][2] t[3][2] l[3][3] t[4][2] l[3][2] </args>
      <args> x[3][3] t[3][3] l[3][4] t[4][3] l[3][3] </args>
      <args> x[3][4] t[3][4] l[3][5] t[4][4] l[3][4] </args>
      <args> x[3][5] t[3][5] l[3][6] t[4][5] l[3][5] </args>
      <args> x[3][6] t[3][6] l[3][7] t[4][6] l[3][6] </args>
      <args> x[3][7] t[3][7] l[3][8] t[4][7] l[3][7] </args>
      <args> x[4][0] t[4][0] l[4][1] t[5][0] l[4][0] </args>
      <args> x[4][1] t[4][1] l[4][2] t[5][1] l[4][1] </args>
      <args> x[4][2] t[4][2] l[4][3] t[5][2] l[4][2] </args>
      <args> x[4][3] t[4][3] l[4][4] t[5][3] l[4][3] </args>
      <args> x[4][4] t[4][4] l[4][5] t[5][4] l[4][4] </args>
      <args> x[4][5] t[4][5] l[4][6] t[5][5] l[4][5] </args>
      <args> x[4][6] t[4][6] l[4][7] t[5][6] l[4][6] </args>
      <args> x[4][7] t[4][7] l[4][8] t[5][7] l[4][7] </args>
      <args> x[5][0] t[5][0] l[5][1] t[6][0] l[5][0] </args>
      <args> x[5][1] t[5][1] l[5][2] t[6][1] l[5][1] </args>
      <args> x[5][2] t[5][2] l[5][3] t[6][2] l[5][2] </args>
      <args> x[5][3] t[5][3] l[5][4] t[6][3] l[5][3] </args>
      <args> x[5][4] t[5][4] l[5][5] t[6][4] l[5][4] </args>
      <args> x[5][5] t[5][5] l[5][6] t[6][5] l[5][5] </args>
      <args> x[5][6] t[5][6] l[5][7] t[6][6] l[5][6] </args>
      <args> x[5][7] t[5][7] l[5][8] t[6][7] l[5][7] </args>
      <args> x[6][0] t[6][0] l[6][1] t[7][0] l[6][0] </args>
      <args> x[6][1] t[6][1] l[6][2] t[7][1] l[6][1] </args>
      <args> x[6][2] t[6][2] l[6][3] t[7][2] l[6][2] </args>
      <args> x[6][3] t[6][3] l[6][4] t[7][3] l[6][3] </args>
      <args> x[6][4] t[6][4] l[6][5] t[7][4] l[6][4] </args>
      <args> x[6][5] t[6][5] l[6][6] t[7][5] l[6][5] </args>
      <args> x[6][6] t[6][6] l[6][7] t[7][6] l[6][6] </args>
      <args> x[6][7] t[6][7] l[6][8] t[7][7] l[6][7] </args>
      <args> x[7][0] t[7][0] l[7][1] t[8][0] l[7][0] </args>
      <args> x[7][1] t[7][1] l[7][2] t[8][1] l[7][1] </args>
      <args> x[7][2] t[7][2] l[7][3] t[8][2] l[7][2] </args>
      <args> x[7][3] t[7][3] l[7][4] t[8][3] l[7][3] </args>
      <args> x[7][4] t[7][4] l[7][5] t[8][4] l[7][4] </args>
      <args> x[7][5] t[7][5] l[7][6] t[8][5] l[7][5] </args>
      <args> x[7][6] t[7][6] l[7][7] t[8][6] l[7][6] </args>
      <args> x[7][7] t[7][7] l[7][8] t[8][7] l[7][7] </args>
      <args> x[8][0] t[8][0] l[8][1] t[9][0] l[8][0] </args>
      <args> x[8][1] t[8][1] l[8][2] t[9][1] l[8][1] </args>
      <args> x[8][2] t[8][2] l[8][3] t[9][2] l[8][2] </args>
      <args> x[8][3] t[8][3] l[8][4] t[9][3] l[8][3] </args>
      <args> x[8][4] t[8][4] l[8][5] t[9][4] l[8][4] </args>
      <args> x[8][5] t[8][5] l[8][6] t[9][5] l[8][5] </args>
      <args> x[8][6] t[8][6] l[8][7] t[9][6] l[8][6] </args>
      <args> x[8][7] t[8][7] l[8][8] t[9][7] l[8][7] </args>
      <args> x[9][0] t[9][0] l[9][1] t[10][0] l[9][0] </args>
      <args> x[9][1] t[9][1] l[9][2] t[10][1] l[9][1] </args>
      <args> x[9][2] t[9][2] l[9][3] t[10][2] l[9][2] </args>
      <args> x[9][3] t[9][3] l[9][4] t[10][3] l[9][3] </args>
      <args> x[9][4] t[9][4] l[9][5] t[10][4] l[9][4] </args>
      <args> x[9][5] t[9][5] l[9][6] t[10][5] l[9][5] </args>
      <args> x[9][6] t[9][6] l[9][7] t[10][6] l[9][6] </args>
      <args> x[9][7] t[9][7] l[9][8] t[10][7] l[9][7] </args>
    </group>
    <group note="putting special value 0 on borders">
      <intension> eq(%0,0) </intension>
      <args> t[0][0] </args>
      <args> t[0][1] </args>
      <args> t[0][2] </args>
      <args> t[0][3] </args>
      <args> t[0][4] </args>
      <args> t[0][5] </args>
      <args> t[0][6] </args>
      <args> t[0][7] </args>
      <args> l[0][8] </args>
      <args> l[1][8] </args>
      <args> l[2][8] </args>
      <args> l[3][8] </args>
      <args> l[4][8] </args>
      <args> l[5][8] </args>
      <args> l[6][8] </args>
      <args> l[7][8] </args>
      <args> l[8][8] </args>
      <args> l[9][8] </args>
      <args> t[10][0] </args>
      <args> t[10][1] </args>
      <args> t[10][2] </args>
      <args> t[10][3] </args>
      <args> t[10][4] </args>
      <args> t[10][5] </args>
      <args> t[10][6] </args>
      <args> t[10][7] </args>
      <args> l[0][0] </args>
      <args> l[1][0] </args>
      <args> l[2][0] </args>
      <args> l[3][0] </args>
      <args> l[4][0] </args>
      <args> l[5][0] </args>
      <args> l[6][0] </args>
      <args> l[7][0] </args>
      <args> l[8][0] </args>
      <args> l[9][0] </args>
    </group>
  </constraints>
</instance>
